n_res = 4;
rcap = [16, 19, 82, 83];
rtype = [1, 1, 2, 2];
n_tasks = 16;
modes = [ {1}, {2}, {3}, {4}, {5}, {6}, {7}, {8}, {9}, {10}, {11}, {12}, {13}, {14}, {15}, {16} ];
succ = [ {6, 7}, {5, 10}, {4, 5, 7}, {8, 10}, {8, 11, 14}, {8, 12, 13}, {9, 15}, {15, 16}, {14}, {11, 12}, {13, 16}, {14, 16}, {15}, {}, {}, {} ];
n_opt = 16;
dur = [5, 4, 8, 9, 4, 10, 1, 2, 7, 6, 2, 8, 7, 6, 5, 7];
rreq = [|  8,  6,  6,  2,  2,  5,  4,  9,  5,  3,  2,  2,  4,  5,  7, 10
        |  8,  2,  6,  8,  5,  7,  7,  9,  7,  3,  3, 10,  6,  8,  3,  7
        |  8,  7,  9,  1,  6,  9,  9,  2,  3,  9,  1,  7,  3,  1,  5,  2
        |  9,  5,  5,  3, 10,  4,  1,  7,  7,  4,  5,  1,  4,  8,  8,  2 |];
